p cnf 126 428
3 -1 0
3 2 0
1 -2 -3 0
-6 4 0
-6 -5 0
-4 5 6 0
8 4 0
8 -7 0
-4 7 -8 0
6 8 -9 0
-6 -8 -9 0
6 -8 9 0
-6 8 9 0
10 3 0
10 9 0
-3 -9 -10 0
-12 -11 0
-12 -2 0
11 2 12 0
13 1 0
13 -4 0
-1 4 -13 0
14 -12 0
14 13 0
12 -13 -14 0
-16 -15 0
-16 7 0
15 -7 16 0
14 16 -17 0
-14 -16 -17 0
14 -16 17 0
-14 16 17 0
19 18 0
19 -13 0
-18 13 -19 0
11 -18 -20 0
-11 18 -20 0
11 18 20 0
-11 -18 20 0
-21 -18 0
-21 -20 0
18 20 21 0
-24 -22 0
-24 23 0
22 -23 24 0
-25 21 0
-25 -24 0
-21 24 25 0
-19 -25 -26 0
19 25 -26 0
-19 25 26 0
19 -25 26 0
-27 -20 0
-27 5 0
20 -5 27 0
-28 26 0
-28 27 0
-26 -27 28 0
29 28 0
29 13 0
-28 -13 -29 0
-17 29 -30 0
17 -29 -30 0
-17 -29 30 0
17 29 30 0
-31 32 -33 0
31 -32 -33 0
-31 -32 33 0
31 32 33 0
34 -11 0
34 33 0
11 -33 -34 0
-31 -7 -35 0
31 7 -35 0
-31 7 35 0
31 -7 35 0
31 35 -36 0
-31 -35 -36 0
31 -35 36 0
-31 35 36 0
-37 -18 0
-37 -22 0
18 22 37 0
-38 5 -39 0
38 -5 -39 0
-38 -5 39 0
38 5 39 0
40 37 0
40 39 0
-37 -39 -40 0
41 -36 0
41 -40 0
36 40 -41 0
2 41 -42 0
-2 -41 -42 0
2 -41 42 0
-2 41 42 0
6 -42 -43 0
-6 42 -43 0
6 42 43 0
-6 -42 43 0
44 43 0
44 -31 0
-43 31 -44 0
45 34 0
45 44 0
-34 -44 -45 0
46 30 0
46 -45 0
-30 45 -46 0
33 -15 -47 0
-33 15 -47 0
33 15 47 0
-33 -15 47 0
20 19 -48 0
-20 -19 -48 0
20 -19 48 0
-20 19 48 0
49 35 0
49 48 0
-35 -48 -49 0
47 49 -50 0
-47 -49 -50 0
47 -49 50 0
-47 49 50 0
-52 51 0
-52 -22 0
-51 22 52 0
52 53 -54 0
-52 -53 -54 0
52 -53 54 0
-52 53 54 0
-55 -35 0
-55 24 0
35 -24 55 0
-56 35 0
-56 55 0
-35 -55 56 0
57 40 0
57 -8 0
-40 8 -57 0
-1 22 -58 0
1 -22 -58 0
-1 -22 58 0
1 22 58 0
-59 58 0
-59 -38 0
-58 38 59 0
60 -57 0
60 -59 0
57 59 -60 0
-61 -56 0
-61 60 0
56 -60 61 0
62 -54 0
62 61 0
54 -61 -62 0
63 48 0
63 -58 0
-48 58 -63 0
63 -35 -64 0
-63 35 -64 0
63 35 64 0
-63 -35 64 0
-65 -62 0
-65 -64 0
62 64 65 0
-52 -58 -66 0
52 58 -66 0
-52 58 66 0
52 -58 66 0
-19 7 -67 0
19 -7 -67 0
-19 -7 67 0
19 7 67 0
68 -66 0
68 67 0
66 -67 -68 0
-7 22 -69 0
7 -22 -69 0
-7 -22 69 0
7 22 69 0
-11 -69 -70 0
11 69 -70 0
-11 69 70 0
11 -69 70 0
70 31 -71 0
-70 -31 -71 0
70 -31 71 0
-70 31 71 0
51 -4 -72 0
-51 4 -72 0
51 4 72 0
-51 -4 72 0
-73 71 0
-73 -72 0
-71 72 73 0
-74 68 0
-74 -73 0
-68 73 74 0
-75 65 0
-75 -74 0
-65 74 75 0
76 -50 0
76 75 0
50 -75 -76 0
77 46 0
77 -76 0
-46 76 -77 0
51 12 -78 0
-51 -12 -78 0
51 -12 78 0
-51 12 78 0
79 -5 -80 0
-79 5 -80 0
79 5 80 0
-79 -5 80 0
81 -34 0
81 -8 0
34 8 -81 0
-12 -8 -82 0
12 8 -82 0
-12 8 82 0
12 -8 82 0
-83 -81 0
-83 82 0
81 -82 83 0
-84 13 0
-84 -7 0
-13 7 84 0
-85 -84 0
-85 -39 0
84 39 85 0
-86 1 0
-86 -20 0
-1 20 86 0
85 -86 -87 0
-85 86 -87 0
85 86 87 0
-85 -86 87 0
79 -84 -88 0
-79 84 -88 0
79 84 88 0
-79 -84 88 0
89 -87 0
89 88 0
87 -88 -89 0
-90 -5 0
-90 -18 0
5 18 90 0
-91 -89 0
-91 -90 0
89 90 91 0
-83 91 -92 0
83 -91 -92 0
-83 -91 92 0
83 91 92 0
80 92 -93 0
-80 -92 -93 0
80 -92 93 0
-80 92 93 0
-94 78 0
-94 -93 0
-78 93 94 0
22 -69 -95 0
-22 69 -95 0
22 69 95 0
-22 -69 95 0
-96 -11 0
-96 -42 0
11 42 96 0
97 5 0
97 36 0
-5 -36 -97 0
98 -24 0
98 -4 0
24 4 -98 0
-99 97 0
-99 98 0
-97 -98 99 0
-100 -24 0
-100 23 0
24 -23 100 0
101 38 0
101 -11 0
-38 11 -101 0
100 -101 -102 0
-100 101 -102 0
100 101 102 0
-100 -101 102 0
31 1 -103 0
-31 -1 -103 0
31 -1 103 0
-31 1 103 0
102 -103 -104 0
-102 103 -104 0
102 103 104 0
-102 -103 104 0
99 104 -105 0
-99 -104 -105 0
99 -104 105 0
-99 104 105 0
-106 -5 0
-106 57 0
5 -57 106 0
2 12 -107 0
-2 -12 -107 0
2 -12 107 0
-2 12 107 0
108 -57 0
108 -23 0
57 23 -108 0
107 108 -109 0
-107 -108 -109 0
107 -108 109 0
-107 108 109 0
110 -106 0
110 -109 0
106 109 -110 0
-111 2 0
-111 -24 0
-2 24 111 0
112 37 0
112 21 0
-37 -21 -112 0
-55 -43 -113 0
55 43 -113 0
-55 43 113 0
55 -43 113 0
114 112 0
114 -113 0
-112 113 -114 0
-115 19 0
-115 -23 0
-19 23 115 0
114 115 -116 0
-114 -115 -116 0
114 -115 116 0
-114 115 116 0
117 -111 0
117 -116 0
111 116 -117 0
118 110 0
118 117 0
-110 -117 -118 0
105 118 -119 0
-105 -118 -119 0
105 -118 119 0
-105 118 119 0
-96 -119 -120 0
96 119 -120 0
-96 119 120 0
96 -119 120 0
-121 -66 0
-121 -48 0
66 48 121 0
122 120 0
122 121 0
-120 -121 -122 0
123 -95 0
123 122 0
95 -122 -123 0
124 94 0
124 -123 0
-94 123 -124 0
-125 77 0
-125 124 0
-77 -124 125 0
-126 10 0
-126 125 0
-10 -125 126 0
50 65 88 52 51 -14 0
-107 125 0
-81 103 64 -115 75 0
-31 -32 71 0
101 -23 27 3 -111 58 0
-1 -112 -78 6 115 -101 0
-122 -103 82 -13 33 117 0
85 -2 0
-79 -64 86 2 -16 0
-52 -2 -97 0
6 -38 -10 -99 -55 0
-112 -121 0
10 -88 -48 -78 97 0
-3 110 -86 -119 -27 0
35 114 -1 0
-87 20 -79 0
-78 110 81 -34 33 121 0
-80 71 -39 28 0
64 124 -72 0
87 1 0
-17 -28 109 -42 0
-2 10 47 121 39 89 0
25 -122 -110 3 -87 0
43 -114 0
-72 111 27 -2 -11 0
59 -44 0
-64 68 -80 -1 -91 -110 0
-62 57 -16 43 -22 -38 0
-80 -75 51 0
-124 64 67 -63 0
-12 -36 114 -19 0
-82 36 17 -113 -72 0
2 115 107 0
-95 -99 0
86 78 8 114 -101 0
-86 97 -64 90 25 -98 0
27 28 -74 30 -109 0
119 -98 0
86 42 0
-114 -28 0
-10 -119 -17 26 37 0
-107 -35 -95 65 52 0
-92 101 -83 -64 70 -7 0
73 -10 32 40 0
62 116 46 110 0
116 -4 113 -13 0
68 9 12 117 6 88 0
100 -107 0
-84 -42 -126 0
91 34 36 0
-5 40 -103 -56 0
-40 116 61 0
-102 -78 17 124 3 0
-20 16 26 85 57 0
-19 -84 -62 -96 -74 -15 0
-10 -41 124 -95 0
126 0
